c clasp version 2.1.1
c Reading from p20.cnf
c Solving...
s SATISFIABLE

c Models        : 1+    
c Time          : 1.275s (Solving: 0.55s 1st Model: 0.55s Unsat: 0.00s)
c CPU Time      : 1.270s
c Choices       : 25772
c Conflicts     : 4343
c Restarts      : 6      (Average: 723.83 Last: 731)

c Variables     : 205151 (Eliminated: 64543 Frozen:    0)
c Constraints   : 232729 (Binary: 64.4% Ternary: 34.0% Other:  1.6%)
c Lemmas        : 4343   (Binary:  0.0% Ternary:  0.3% Other: 99.7%)
c   Conflict    : 4343   (Average Length: 139.4) 
c   Loop        : 0      (Average Length: 0.0) 
c   Other       : 0      (Average Length: 0.0)
c   Deleted     : 0     
